59 5 76 40 86 122 36 74 30 94 50 24 77 125 48
48 125 77 24 50 94 30 74 36 122 86 40 76 5 59
18 55 2 25 73 24 50 94 129 42 39 1 81 20 13 46 127 6
6 127 46 13 20 81 1 39 42 129 94 50 24 73 25 2 55 18
71 53 112 36 35 123 130 44 118 42 139 91 32 102 92 125 90
90 125 92 102 32 91 139 42 118 44 130 123 35 36 112 53 110 71
